
Gurobi 6.5.2 (linux64) logging started Mon Aug 29 10:58:08 2016

Optimize a model with 201 rows, 3565 columns and 7131 nonzeros
Coefficient statistics:
  Matrix range    [1e+00, 2e+00]
  Objective range [1e+00, 1e+02]
  Bounds range    [1e+00, 1e+00]
  RHS range       [1e+00, 1e+00]
Found heuristic solution: objective 5497
Presolve removed 101 rows and 100 columns
Presolve time: 0.01s
Presolved: 100 rows, 3465 columns, 6930 nonzeros
Variable types: 0 continuous, 3465 integer (3465 binary)

Root relaxation: objective 9.120000e+02, 162 iterations, 0.00 seconds

    Nodes    |    Current Node    |     Objective Bounds      |     Work
 Expl Unexpl |  Obj  Depth IntInf | Incumbent    BestBd   Gap | It/Node Time

     0     0  912.00000    0   14 5497.00000  912.00000  83.4%     -    0s
H    0     0                     999.0000000  912.00000  8.71%     -    0s
H    0     0                     916.0000000  912.00000  0.44%     -    0s
     0     0  912.50000    0   20  916.00000  912.50000  0.38%     -    0s
     0     0  914.00000    0    6  916.00000  914.00000  0.22%     -    0s

Cutting planes:
  Gomory: 1

Explored 0 nodes (245 simplex iterations) in 0.06 seconds
Thread count was 8 (of 8 available processors)

Optimal solution found (tolerance 1.00e-04)
Best objective 9.160000000000e+02, best bound 9.160000000000e+02, gap 0.0%
